path="C:/Users/15217/Desktop/3TAYLOR_LR5E-4/saved_files/cplex_logs/rebalancing/scenario_nyc4/res_0.dat";
edgeAttr={<1, 2, 0, 6.0>, <1, 3, 0, 4.0>, <2, 1, 0, 6.0>, <2, 6, 0, 5.0>, <3, 1, 0, 4.0>, <3, 4, 0, 4.0>, <3, 12, 0, 4.0>, <6, 2, 0, 5.0>, <6, 5, 0, 4.0>, <6, 8, 0, 2.0>, <4, 3, 0, 4.0>, <4, 5, 0, 2.0>, <4, 11, 0, 6.0>, <12, 3, 0, 4.0>, <12, 11, 0, 6.0>, <12, 13, 0, 3.0>, <5, 4, 0, 2.0>, <5, 6, 0, 4.0>, <5, 9, 0, 5.0>, <11, 4, 0, 6.0>, <11, 10, 0, 5.0>, <11, 12, 0, 6.0>, <11, 14, 0, 4.0>, <9, 5, 0, 5.0>, <9, 8, 0, 10.0>, <9, 10, 0, 3.0>, <8, 6, 0, 2.0>, <8, 7, 0, 3.0>, <8, 9, 0, 10.0>, <8, 16, 0, 5.0>, <7, 8, 0, 3.0>, <7, 18, 0, 2.0>, <18, 7, 0, 2.0>, <18, 16, 0, 3.0>, <18, 20, 0, 4.0>, <16, 8, 0, 5.0>, <16, 10, 0, 4.0>, <16, 17, 0, 2.0>, <16, 18, 0, 3.0>, <10, 9, 0, 3.0>, <10, 11, 0, 5.0>, <10, 15, 0, 6.0>, <10, 16, 0, 4.0>, <10, 17, 0, 8.0>, <15, 10, 0, 6.0>, <15, 14, 0, 5.0>, <15, 19, 0, 3.0>, <15, 22, 0, 3.0>, <17, 10, 0, 8.0>, <17, 16, 0, 2.0>, <17, 19, 0, 2.0>, <14, 11, 0, 4.0>, <14, 15, 0, 5.0>, <14, 23, 0, 4.0>, <13, 12, 0, 3.0>, <13, 24, 0, 4.0>, <24, 13, 0, 4.0>, <24, 21, 0, 3.0>, <24, 23, 0, 2.0>, <23, 14, 0, 4.0>, <23, 22, 0, 4.0>, <23, 24, 0, 2.0>, <19, 15, 0, 3.0>, <19, 17, 0, 2.0>, <19, 20, 0, 4.0>, <22, 15, 0, 3.0>, <22, 20, 0, 5.0>, <22, 21, 0, 2.0>, <22, 23, 0, 4.0>, <20, 18, 0, 4.0>, <20, 19, 0, 4.0>, <20, 21, 0, 6.0>, <20, 22, 0, 5.0>, <21, 20, 0, 6.0>, <21, 22, 0, 2.0>, <21, 24, 0, 3.0>};
accInitTuple={<1, 73>, <2, 4>, <3, 54>, <6, 60>, <4, 72>, <12, 0>, <5, 26>, <11, 59>, <9, 62>, <8, 35>, <7, 83>, <18, 19>, <16, 4>, <10, 61>, <15, 62>, <17, 30>, <14, 7>, <13, 29>, <24, 45>, <23, 4>, <19, 49>, <22, 12>, <20, 77>, <21, 40>};
accRLTuple={<1, 25>, <2, 32>, <3, 62>, <6, 46>, <4, 35>, <12, 37>, <5, 27>, <11, 25>, <9, 48>, <8, 69>, <7, 9>, <18, 48>, <16, 28>, <10, 57>, <15, 71>, <17, 22>, <14, 51>, <13, 35>, <24, 19>, <23, 36>, <19, 38>, <22, 35>, <20, 54>, <21, 45>};
